NAME : XML100_3261_14
DIMENSION : 101
NB_CLUSTERS : 5
CLUSTERING_ALG : KMeans
CLUSTERING_PARAMS : k(4)
CLUSTERS
1 0
2 8 9 21 23 24 29 32 39 45 47 54 62 63 64 65 66 67 68 72 86 91 98 100
3 3 7 12 14 17 18 25 31 33 34 35 40 41 42 43 48 50 52 55 61 73 74 78 83 87 89 96 99
4 1 5 6 13 19 22 26 27 28 30 36 37 38 44 49 51 56 58 59 60 70 71 75 76 77 80 81 82 85 88 90 93 94 95 97
5 2 4 10 11 15 16 20 46 53 57 69 79 84 92
EOF